Traveling Salesman Problem/TSP_generados/Aleatorio1620390908_8.tsp
NAME: Aleatorio1620390908_8.tsp
COMMENT: Randomly generated scenario
TYPE: TSP
DIMENSION: 8
EDGE_WEIGHT_TYPE: ATT
NODE_COORD_SECTION
1 33.16 21.38
2 5.54 29.33
3 23.35 25.73
4 26.28 47.79
5 20.64 29.16
6 24.66 42.11
7 29.65 29.9
8 7.63 13.77
