Traveling Salesman Problem/TSP_generados/Aleatorio1620390908_8.opt.tour
NAME: Aleatorio1620390908_8.opt.tour
COMMENT: Optimal solution for Aleatorio1620390908_8 (107.03147612136935)
TYPE: TOUR
DIMENSION: 8
TOUR_SECTION
1 3 5 8 2 4 6 7
-1
EOF
